param NUMSCEN :=100; 			#scenarios
param prob := 0.01;			#probability of scenario;
param pI := 8;				#Total component number
param pT := 10;     		#Time horizon
param pT_ex := 50;			#extended time horizon
param ps := 2;				#Starting time
param pR := 12;				#Number of individuals = pT+2

param pd := 5;				#set up cost
